SPARKNaCl/why3-cvc5/sparknacl-core.adb_319_16_range_check2_1.smt2
;; produced by cvc5.drv ;;
(set-logic ALL)
(set-info :smt-lib-version 2.6)
;;; generated by SMT-LIB2 driver
;;; SMT-LIB2 driver: bit-vectors, common part
;;; SMT-LIB2: integer arithmetic
;; "pow2"
(declare-fun pow2 (Int) Int)

(declare-const two_power_size_minus_one Int)

;; "two_power_size_minus_one_val"
(assert (= two_power_size_minus_one (pow2 (- 8 1))))

;; "min"
(define-fun min ((x Int) (y Int)) Int
  (ite (<= x y) x y))

;; "max"
(define-fun max ((x Int) (y Int)) Int
  (ite (<= x y) y x))

;; "Min_r"
(assert (forall ((x Int) (y Int)) (=> (<= y x) (= (min x y) y))))

;; "Max_l"
(assert (forall ((x Int) (y Int)) (=> (<= y x) (= (max x y) x))))

;; "Min_comm"
(assert (forall ((x Int) (y Int)) (= (min x y) (min y x))))

;; "Max_comm"
(assert (forall ((x Int) (y Int)) (= (max x y) (max y x))))

;; "Min_assoc"
(assert
  (forall ((x Int) (y Int) (z Int)) (= (min (min x y) z) (min x (min y z)))))

;; "Max_assoc"
(assert
  (forall ((x Int) (y Int) (z Int)) (= (max (max x y) z) (max x (max y z)))))

(declare-const two_power_size_minus_one1 Int)

;; "two_power_size_minus_one_val"
(assert (= two_power_size_minus_one1 (pow2 (- 32 1))))

(declare-sort byte 0)

;; "to_rep"
(declare-fun to_rep (byte) (_ BitVec 8))

;; "of_rep"
(declare-fun of_rep ((_ BitVec 8)) byte)

;; "inversion_axiom"
(assert
  (forall ((x byte)) (! (= (of_rep (to_rep x)) x) :pattern ((to_rep x)) )))

;; "range_axiom"
(assert true)

;; "coerce_axiom"
(assert
  (forall ((x (_ BitVec 8)))
    (! (= (to_rep (of_rep x)) x) :pattern ((to_rep (of_rep x))) )))

(declare-sort map1 0)

;; "has_bounds"
(declare-fun has_bounds (map1
  Int
  Int) Bool)

;; "get"
(declare-fun get (map1
  Int) byte)

;; "slide"
(declare-fun slide (map1
  Int
  Int) map1)

;; "slide_eq"
(assert
  (forall ((a map1) (first Int))
    (! (= (slide a first first) a) :pattern ((slide a first first)) )))

;; "slide_def"
(assert
  (forall ((a map1) (old_first Int) (new_first Int))
    (! (and
         (forall ((i Int))
           (! (= (get (slide a old_first new_first) i) (get
                                                         a
                                                         (- i (- new_first old_first)))) :pattern (
           (get
             (slide a old_first new_first)
             i)) ))
         (forall ((new_last Int))
           (! (=>
                (has_bounds a old_first (- new_last (- new_first old_first)))
                (has_bounds (slide a old_first new_first) new_first new_last)) :pattern (
           (has_bounds
             (slide a old_first new_first)
             new_first
             new_last)) ))) :pattern ((slide a old_first new_first)) )))

;; "slice"
(declare-fun slice (map1
  Int
  Int) map1)

;; "slice_eq"
(assert
  (forall ((a map1) (f Int) (l Int))
    (! (=> (has_bounds a f l) (= (slice a f l) a)) :pattern ((slice a f l)
    (has_bounds a f l)) )))

;; "slice_slice"
(assert
  (forall ((a map1) (f1 Int) (l1 Int) (f2 Int) (l2 Int))
    (! (=>
         (and (<= f1 f2) (<= l2 l1))
         (= (slice (slice a f1 l1) f2 l2) (slice a f2 l2))) :pattern (
    (slice
      (slice a f1 l1)
      f2
      l2)) )))

;; "slice_def"
(assert
  (forall ((a map1) (f Int) (l Int))
    (! (forall ((i Int))
         (! (=> (and (<= f i) (<= i l)) (= (get (slice a f l) i) (get a i))) :pattern (
         (get
           (slice a f l)
           i)) :pattern ((get a i)) )) :pattern ((slice a f l)) )))

;; "slice_has_bounds"
(assert
  (forall ((a map1) (f Int) (l Int))
    (! (has_bounds (slice a f l) f l) :pattern ((has_bounds
                                                  (slice a f l)
                                                  f
                                                  l)) )))

(declare-datatypes ((us_split_fields 0))
  (((us_split_fieldsqtmk (rec__ada___sparknacl__core__salsa20_key__f map1)))))

(declare-datatypes ((us_rep 0))
  (((us_repqtmk (us_split_fields1 us_split_fields)))))

;; "dynamic_invariant"
(define-fun dynamic_invariant ((temp___expr_300 us_rep) (temp___is_init_296 Bool) (temp___skip_constant_297 Bool) (temp___do_toplevel_298 Bool) (temp___do_typ_inv_299 Bool)) Bool
  (has_bounds
    (rec__ada___sparknacl__core__salsa20_key__f
      (us_split_fields1 temp___expr_300))
    0
    31))

(declare-const input map1)

(declare-const k us_rep)

(declare-const c map1)

(declare-sort u32 0)

;; "to_rep"
(declare-fun to_rep1 (u32) (_ BitVec 32))

;; "of_rep"
(declare-fun of_rep1 ((_ BitVec 32)) u32)

;; "inversion_axiom"
(assert
  (forall ((x u32)) (! (= (of_rep1 (to_rep1 x)) x) :pattern ((to_rep1 x)) )))

;; "range_axiom"
(assert true)

;; "coerce_axiom"
(assert
  (forall ((x (_ BitVec 32)))
    (! (= (to_rep1 (of_rep1 x)) x) :pattern ((to_rep1 (of_rep1 x))) )))

(declare-sort map2 0)

;; "has_bounds"
(declare-fun has_bounds1 (map2
  Int
  Int) Bool)

;; "get"
(declare-fun get1 (map2
  Int) u32)

;; "set"
(declare-fun set (map2
  Int
  u32) map2)

;; "set_eq"
(assert
  (forall ((a map2) (i Int) (v u32))
    (! (= (get1 (set a i v) i) v) :pattern ((set a i v)) )))

;; "set_neq"
(assert
  (forall ((a map2) (i Int) (v u32))
    (! (forall ((j Int))
         (! (=> (not (= i j)) (= (get1 (set a i v) j) (get1 a j))) :pattern (
         (get1
           a
           j)) :pattern ((get1 (set a i v) j)) )) :pattern ((set a i v)) )))

;; "set_has_bounds"
(assert
  (forall ((a map2) (i Int) (f Int) (l Int) (v u32))
    (! (=>
         (and (<= f i) (<= i l))
         (=> (has_bounds1 a f l) (has_bounds1 (set a i v) f l))) :pattern (
    (has_bounds1
      (set a i v)
      f
      l)) )))

;; "ld32"
(declare-fun ld32 (map1) (_ BitVec 32))

;; "ld32__function_guard"
(declare-fun ld32__function_guard ((_ BitVec 32)
  map1) Bool)

(declare-sort tinteger_32B 0)

;; "tinteger_32B'int"
(declare-fun tinteger_32Bqtint (tinteger_32B) Int)

;; "tinteger_32B'axiom"
(assert
  (forall ((i tinteger_32B))
    (and
      (<= (- 2147483648) (tinteger_32Bqtint i))
      (<= (tinteger_32Bqtint i) 2147483647))))

;; "in_range"
(define-fun in_range ((x Int)) Bool
  (and (<= (- 2147483648) x) (<= x 2147483647)))

;; "to_rep"
(define-fun to_rep2 ((x tinteger_32B)) Int
  (tinteger_32Bqtint x))

;; "of_rep"
(declare-fun of_rep2 (Int) tinteger_32B)

;; "inversion_axiom"
(assert
  (forall ((x tinteger_32B))
    (! (= (of_rep2 (to_rep2 x)) x) :pattern ((to_rep2 x)) )))

;; "range_axiom"
(assert
  (forall ((x tinteger_32B))
    (! (in_range (to_rep2 x)) :pattern ((to_rep2 x)) )))

;; "coerce_axiom"
(assert
  (forall ((x Int))
    (! (=> (in_range x) (= (to_rep2 (of_rep2 x)) x)) :pattern ((to_rep2
                                                                 (of_rep2 x))) )))

(declare-datatypes ((t 0))
  (((tqtmk (rec__first tinteger_32B)(rec__last tinteger_32B)))))

;; "mk"
(declare-fun mk (Int
  Int) t)

;; "mk_def"
(assert
  (forall ((f Int) (l Int))
    (! (=>
         (in_range f)
         (=>
           (in_range l)
           (and
             (= (to_rep2 (rec__first (mk f l))) f)
             (= (to_rep2 (rec__last (mk f l))) l)))) :pattern ((mk f l)) )))

(declare-datatypes ((us_t 0))
  (((us_tqtmk (elts map1)(rt t)))))

;; "of_array"
(define-fun of_array ((a map1) (f Int) (l Int)) us_t
  (us_tqtmk a (mk f l)))

;; "temp_____aggregate_def_847"
(declare-fun temp_____aggregate_def_847 ((_ BitVec 8)) map1)

;; Goal "def'vc"
;; File "sparknacl-core.ads", line 61, characters 0-0
(assert
  (not
  (forall ((output map1) (x map2) (y map2))
    (=>
      (has_bounds output 0 31)
      (=>
        (has_bounds input 0 15)
        (=>
          (dynamic_invariant k true false true true)
          (=>
            (has_bounds c 0 15)
            (=>
              (has_bounds1 x 0 15)
              (=>
                (has_bounds1 y 0 15)
                (forall ((x1 map2) (y1 map2))
                  (=>
                    (and (has_bounds1 x1 0 15) (has_bounds1 y1 0 15))
                    (forall ((x2 map2))
                      (=>
                        (exists ((i Int))
                          (and
                            (= i 0)
                            (ite (= (and (ite (<= 0 i) true false) (ite (<= i 15)
                                                                    true
                                                                    false)) true)
                              (exists ((x3 map2) (i1 Int))
                                (and
                                  (= (and (ite (and
                                                 (has_bounds1 x3 0 15)
                                                 (forall ((temp___829 Int))
                                                   (=>
                                                     (and
                                                       (<= 0 temp___829)
                                                       (<= temp___829 15))
                                                     (=>
                                                       (or
                                                         (< 15 temp___829)
                                                         (or
                                                           (< temp___829 0)
                                                           (<= i1 temp___829)))
                                                       (= (get1
                                                            x3
                                                            temp___829) 
                                                       (get1
                                                         x1
                                                         temp___829))))))
                                            true
                                            false) (ite (and
                                                          (<= 0 i1)
                                                          (<= i1 15))
                                                     true
                                                     false)) true)
                                  (exists ((o (_ BitVec 32)))
                                    (and
                                      (= (to_rep1 (get1 y1 i1)) o)
                                      (exists ((o1 (_ BitVec 32)))
                                        (and
                                          (= (to_rep1 (get1 x3 i1)) o1)
                                          (exists ((o2 u32))
                                            (and
                                              (= (to_rep1 o2) (bvadd o1 o))
                                              (and
                                                (= x2 (set x3 i1 o2))
                                                (= i1 15))))))))))
                              (= x2 x1))))
                        (forall ((x3 map2))
                          (=>
                            (exists ((i Int))
                              (and
                                (= i 0)
                                (ite (= (and (ite (<= 0 i) true false) 
                                  (ite (<= i 3)
                                    true
                                    false)) true)
                                  (exists ((x4 map2) (i1 Int))
                                    (and
                                      (= (and (ite (has_bounds1 x4 0 15)
                                                true
                                                false) (ite (and
                                                              (<= 0 i1)
                                                              (<= i1 3))
                                                         true
                                                         false)) true)
                                      (let ((temp___834 (+ (* 4 i1) 3)))
                                        (let ((temp___833 (* 4 i1)))
                                          (and
                                            (=>
                                              (<= temp___833 temp___834)
                                              (and
                                                (and
                                                  (<= 0 temp___833)
                                                  (<= temp___833 15))
                                                (and
                                                  (<= 0 temp___834)
                                                  (<= temp___834 15))))
                                            (let ((temp___836 (slide
                                                                (slice
                                                                  c
                                                                  temp___833
                                                                  temp___834)
                                                                temp___833
                                                                0)))
                                              (and
                                                (ite (<= temp___833 temp___834)
                                                  (and
                                                    (<= 0 3)
                                                    (= (- temp___834 temp___833) (- 3 0)))
                                                  (< 3 0))
                                                (let ((o (ld32 temp___836)))
                                                  (and
                                                    (ld32__function_guard
                                                      o
                                                      temp___836)
                                                    (exists ((o1 (_ BitVec 32)))
                                                      (and
                                                        (= (to_rep1
                                                             (get1
                                                               x4
                                                               (* 5 i1))) o1)
                                                        (exists ((o2 u32))
                                                          (and
                                                            (= (to_rep1 o2) (bvsub o1 o))
                                                            (exists ((x5 map2))
                                                              (and
                                                                (= x5 
                                                                (set
                                                                  x4
                                                                  (* 5 i1)
                                                                  o2))
                                                                (let ((temp___839 (+ (* 4 i1) 3)))
                                                                  (let ((temp___838 (* 4 i1)))
                                                                    (and
                                                                    (=>
                                                                    (<= temp___838 temp___839)
                                                                    (and
                                                                    (and
                                                                    (<= 0 temp___838)
                                                                    (<= temp___838 15))
                                                                    (and
                                                                    (<= 0 temp___839)
                                                                    (<= temp___839 15))))
                                                                    (let ((temp___841 
                                                                    (slide
                                                                    (slice
                                                                    input
                                                                    temp___838
                                                                    temp___839)
                                                                    temp___838
                                                                    0)))
                                                                    (and
                                                                    (ite (<= temp___838 temp___839)
                                                                    (and
                                                                    (<= 0 3)
                                                                    (= (- temp___839 temp___838) (- 3 0)))
                                                                    (< 3 0))
                                                                    (let ((o3 
                                                                    (ld32
                                                                    temp___841)))
                                                                    (and
                                                                    (ld32__function_guard
                                                                    o3
                                                                    temp___841)
                                                                    (exists 
                                                                    ((o4 (_ BitVec 32)))
                                                                    (and
                                                                    (= 
                                                                    (to_rep1
                                                                    (get1
                                                                    x5
                                                                    (+ 6 i1))) o4)
                                                                    (exists 
                                                                    ((o5 u32))
                                                                    (and
                                                                    (= 
                                                                    (to_rep1
                                                                    o5) (bvsub o4 o3))
                                                                    (and
                                                                    (= x3 
                                                                    (set
                                                                    x5
                                                                    (+ 6 i1)
                                                                    o5))
                                                                    (= i1 3))))))))))))))))))))))))))))
                                  (= x3 x2))))
                            (forall ((temp___851 map1))
                              (=>
                                (and
                                  (and
                                    (has_bounds temp___851 0 31)
                                    (forall ((temp___850 Int))
                                      (! (=>
                                           (and
                                             (<= 0 temp___850)
                                             (<= temp___850 31))
                                           (= (to_rep
                                                (get temp___851 temp___850)) #x00)) :pattern (
                                      (get
                                        temp___851
                                        temp___850)) )))
                                  (= temp___851 (temp_____aggregate_def_847
                                                  #x00)))
                                (forall ((output1 map1))
                                  (=>
                                    (= output1 temp___851)
                                    (forall ((i Int))
                                      (=>
                                        (= i 0)
                                        (=>
                                          (= (and (ite (<= 0 i) true false) 
                                          (ite (<= i 3)
                                            true
                                            false)) true)
                                          (forall ((output2 map1) (i1 Int))
                                            (=>
                                              (= (and (ite (has_bounds
                                                             output2
                                                             0
                                                             31)
                                                        true
                                                        false) (ite (and
                                                                    (<= 0 i1)
                                                                    (<= i1 3))
                                                                 true
                                                                 false)) true)
                                              (let ((temp___856 (+ (* 4 i1) 3)))
                                                (let ((temp___855 (* 4 i1)))
                                                  (=>
                                                    (=>
                                                      (<= temp___855 temp___856)
                                                      (and
                                                        (and
                                                          (<= 0 temp___855)
                                                          (<= temp___855 31))
                                                        (and
                                                          (<= 0 temp___856)
                                                          (<= temp___856 31))))
                                                    (=>
                                                      (ite (<= temp___855 temp___856)
                                                        (and
                                                          (<= 0 3)
                                                          (= (- temp___856 temp___855) (- 3 0)))
                                                        (< 3 0))
                                                      (forall ((o (_ BitVec 32)))
                                                        (=>
                                                          (= (to_rep1
                                                               (get1
                                                                 x3
                                                                 (* 5 i1))) o)
                                                          (forall ((param__x map1))
                                                            (=>
                                                              (has_bounds
                                                                param__x
                                                                0
                                                                3)
                                                              (forall 
                                                                ((usf map1))
                                                                (=>
                                                                  (forall 
                                                                    ((temp___864 Int))
                                                                    (ite 
                                                                    (and
                                                                    (<= (* 4 i1) temp___864)
                                                                    (<= temp___864 (+ (* 4 i1) 3)))
                                                                    (= 
                                                                    (get
                                                                    usf
                                                                    temp___864) 
                                                                    (get
                                                                    (slide
                                                                    param__x
                                                                    0
                                                                    (* 4 i1))
                                                                    temp___864))
                                                                    (= 
                                                                    (get
                                                                    usf
                                                                    temp___864) 
                                                                    (get
                                                                    output2
                                                                    temp___864))))
                                                                  (forall 
                                                                    ((output3 map1))
                                                                    (=>
                                                                    (= output3 usf)
                                                                    (let ((temp___867 (+ (* 4 i1) 16)))
                                                                    (=>
                                                                    (<= temp___867 (+ (* 4 i1) 19))
                                                                    (<= temp___867 31)))))))))))))))))))))))))))))))))))))))

(check-sat)
